21619.0
16,17,433,742,487,12,1,592,1409,907,663,1286,895,422,113,303,880,1489,1648,794,545,1464,1345,1309,106,1146,1353,253,1651,1206,1644,1672,1105,988,1078,1814,103,1698,926,1689,583,1540,1351,1196,855,675,322,1486,164,1637,852,757,668,475,1623,1478,232,1273,637,1733,323,1656,1293,1890,1615,1100,1834,694,938,373,909,147,292,1165,1731,838,498,1660,1314,1550,721,1472,1695,505,1599,1561,29,767,1617,1471,842,1555,89,606,546,46,921,391,1835,1385,96,157,1193,1605,1567,273,1710,271,1261,758,946,1198,1267,883,764,1379,1984,1474
